
Log started (V11.0.0) Fri May 16 08:51:21 2008

Tried aggregator 1 time.
Reduced MIP has 240 rows, 8001 columns, and 16040 nonzeros.
Presolve time =    0.06 sec.
Clique table members: 200.
MIP emphasis: balance optimality and feasibility.
MIP search method: dynamic search.
Parallel mode: none, using 1 thread.
Root relaxation solution time =    0.37 sec.

        Nodes                                         Cuts/
   Node  Left     Objective  IInf  Best Integer     Best Node    ItCnt     Gap

*     0+    0                         9064.0000      153.2653      611   98.31%
*     0+    0                          191.0000      153.2653      611   19.76%
      0     0      154.0000    71      191.0000      Fract: 6      626   19.37%
*     0+    0                          189.0000      154.0000      626   18.52%
      0     0      154.0000    74      189.0000       Cuts: 2      662   18.52%
*     0+    0                          187.0000      154.0000      662   17.65%
      0     0      154.9192    76      187.0000       Cuts: 6      773   17.16%
*     0+    0                          184.0000      154.9192      773   15.80%
      0     0      161.0099    66      184.0000   MIRcuts: 25     1295   12.49%
      0     0      161.1723    75      184.0000      Cuts: 16     1357   12.41%
      0     0      161.3383    86      184.0000      Cuts: 16     1423   12.32%
      0     0      161.3383    91      184.0000       Cuts: 9     1465   12.32%
*     0+    0                          183.0000      161.3383     1465   11.84%
*     0+    0                          182.0000      161.3383     1465   11.35%
*     0+    0                          181.0000      161.3383     1465   10.86%
*     0+    0                          180.0000      161.3383     1465   10.37%
*     0+    0                          179.0000      161.3383     1465    9.87%
      0     2      162.0000    77      179.0000      161.3383     1465    9.87%
*    10+   10                          178.0000      162.0000     1518    8.99%
*    20+   20                          175.0000      162.0000     1553    7.43%
*    20+   20                          174.0000      162.0000     1553    6.90%
*    40+   38                          173.0000      162.0000     1673    6.36%
    100    99      163.0000    54      173.0000      162.0000     3033    6.36%
*   200+  166                          172.0000      162.0000    10946    5.81%
    200   167      163.0624    61      172.0000      162.0000    10946    5.81%
    300   218      163.0516    62      172.0000      162.0000    21326    5.81%
    400   277      164.0000    42      172.0000      162.0000    28474    5.81%
*   476+  214                          171.0000      167.5738    33875    2.00%
*   476+  142                          170.0000      167.5738    33875    1.43%
    500   152      169.0000    17      170.0000      168.0000    34307    1.18%
    600   158      169.0000    46      170.0000      168.0000    37299    1.18%
    700   114    infeasible            170.0000      169.0000    46752    0.59%
    800    14    infeasible            170.0000      169.0000    77452    0.59%

Cover cuts applied:  41
Implied bound cuts applied:  5
Mixed integer rounding cuts applied:  18
Gomory fractional cuts applied:  2

Solution pool: 17 solutions saved.

MIP - Integer optimal solution:  Objective = 1.7000000000e+002
Solution time =   48.56 sec.  Iterations = 80580  Nodes = 815


Incumbent solution
Variable Name           Solution Value
Cmax                        170.000000
X_1_23                        1.000000
X_2_9                         1.000000
X_3_3                         1.000000
X_4_9                         1.000000
X_5_4                         1.000000
X_6_9                         1.000000
X_7_5                         1.000000
X_8_38                        1.000000
X_9_20                        1.000000
X_10_9                        1.000000
X_11_12                       1.000000
X_12_10                       1.000000
X_13_2                        1.000000
X_14_32                       1.000000
X_15_2                        1.000000
X_16_14                       1.000000
X_17_32                       1.000000
X_18_8                        1.000000
X_19_37                       1.000000
X_20_23                       1.000000
X_21_12                       1.000000
X_22_29                       1.000000
X_23_35                       1.000000
X_24_21                       1.000000
X_25_8                        1.000000
X_26_7                        1.000000
X_27_35                       1.000000
X_28_35                       1.000000
X_29_12                       1.000000
X_30_12                       1.000000
X_31_3                        1.000000
X_32_9                        1.000000
X_33_16                       1.000000
X_34_10                       1.000000
X_35_9                        1.000000
X_36_33                       1.000000
X_37_40                       1.000000
X_38_7                        1.000000
X_39_17                       1.000000
X_40_34                       1.000000
X_41_26                       1.000000
X_42_9                        1.000000
X_43_7                        1.000000
X_44_19                       1.000000
X_45_9                        1.000000
X_46_34                       1.000000
X_47_17                       1.000000
X_48_36                       1.000000
X_49_15                       1.000000
X_50_16                       1.000000
X_51_4                        1.000000
X_52_2                        1.000000
X_53_14                       1.000000
X_54_9                        1.000000
X_55_1                        1.000000
X_56_32                       1.000000
X_57_12                       1.000000
X_58_9                        1.000000
X_59_40                       1.000000
X_60_7                        1.000000
X_61_16                       1.000000
X_62_28                       1.000000
X_63_35                       1.000000
X_64_32                       1.000000
X_65_40                       1.000000
X_66_9                        1.000000
X_67_4                        1.000000
X_68_19                       1.000000
X_69_10                       1.000000
X_70_12                       1.000000
X_71_32                       1.000000
X_72_12                       1.000000
X_73_9                        1.000000
X_74_34                       1.000000
X_75_21                       1.000000
X_76_9                        1.000000
X_77_32                       1.000000
X_78_25                       1.000000
X_79_35                       1.000000
X_80_10                       1.000000
X_81_12                       1.000000
X_82_9                        1.000000
X_83_17                       1.000000
X_84_5                        1.000000
X_85_9                        1.000000
X_86_9                        1.000000
X_87_11                       1.000000
X_88_9                        1.000000
X_89_9                        1.000000
X_90_21                       1.000000
X_91_21                       1.000000
X_92_5                        1.000000
X_93_9                        1.000000
X_94_17                       1.000000
X_95_9                        1.000000
X_96_15                       1.000000
X_97_34                       1.000000
X_98_7                        1.000000
X_99_35                       1.000000
X_100_11                      1.000000
X_101_20                      1.000000
X_102_26                      1.000000
X_103_12                      1.000000
X_104_13                      1.000000
X_105_12                      1.000000
X_106_9                       1.000000
X_107_9                       1.000000
X_108_17                      1.000000
X_109_12                      1.000000
X_110_17                      1.000000
X_111_12                      1.000000
X_112_9                       1.000000
X_113_10                      1.000000
X_114_22                      1.000000
X_115_10                      1.000000
X_116_2                       1.000000
X_117_6                       1.000000
X_118_8                       1.000000
X_119_9                       1.000000
X_120_7                       1.000000
X_121_8                       1.000000
X_122_9                       1.000000
X_123_6                       1.000000
X_124_8                       1.000000
X_125_10                      1.000000
X_126_9                       1.000000
X_127_32                      1.000000
X_128_12                      1.000000
X_129_38                      1.000000
X_130_17                      1.000000
X_131_12                      1.000000
X_132_25                      1.000000
X_133_35                      1.000000
X_134_9                       1.000000
X_135_12                      1.000000
X_136_12                      1.000000
X_137_2                       1.000000
X_138_12                      1.000000
X_139_17                      1.000000
X_140_12                      1.000000
X_141_27                      1.000000
X_142_40                      1.000000
X_143_22                      1.000000
X_144_9                       1.000000
X_145_19                      1.000000
X_146_28                      1.000000
X_147_10                      1.000000
X_148_17                      1.000000
X_149_8                       1.000000
X_150_12                      1.000000
X_151_9                       1.000000
X_152_12                      1.000000
X_153_29                      1.000000
X_154_35                      1.000000
X_155_6                       1.000000
X_156_17                      1.000000
X_157_12                      1.000000
X_158_9                       1.000000
X_159_10                      1.000000
X_160_24                      1.000000
X_161_15                      1.000000
X_162_9                       1.000000
X_163_9                       1.000000
X_164_12                      1.000000
X_165_2                       1.000000
X_166_19                      1.000000
X_167_7                       1.000000
X_168_38                      1.000000
X_169_38                      1.000000
X_170_18                      1.000000
X_171_8                       1.000000
X_172_18                      1.000000
X_173_31                      1.000000
X_174_30                      1.000000
X_175_2                       1.000000
X_176_21                      1.000000
X_177_10                      1.000000
X_178_15                      1.000000
X_179_9                       1.000000
X_180_12                      1.000000
X_181_10                      1.000000
X_182_9                       1.000000
X_183_19                      1.000000
X_184_10                      1.000000
X_185_10                      1.000000
X_186_10                      1.000000
X_187_34                      1.000000
X_188_10                      1.000000
X_189_9                       1.000000
X_190_12                      1.000000
X_191_10                      1.000000
X_192_39                      1.000000
X_193_9                       1.000000
X_194_17                      1.000000
X_195_12                      1.000000
X_196_28                      1.000000
X_197_10                      1.000000
X_198_2                       1.000000
X_199_35                      1.000000
X_200_12                      1.000000
All other variables in the range 1-8001 are 0.
